(declare-const term_to_project_onto0 Real)
(declare-const term_to_project_onto Real)
(assert (exists
         ((uninterp?1 Int) (|p'?2| Int) (|d'?3| Int) (p?4 Int) (d?5 Int)
            (r?6 Int) (q?7 Int) (B?8 Int) (A?9 Int))
         (and (<= (+ (- p?4) 1) 0) (<= (+ (- d?5) 1) 0) (= q?7 0)
                (<= (+ (- B?8) 1) 0) (= (+ (- B?8) 1) 0)
                (= (+ (- r?6) A?9) 0) (= q?7 0) (= (+ d?5 (- p?4)) 0)
                (= q?7 0) (= (+ r?6 (- A?9)) 0) (= (+ d?5 (- uninterp?1)) 0)
                (<= (+ (- r?6) d?5) 0) (= (+ |p'?2| (* -2 p?4)) 0)
                (= (+ |d'?3| (* -2 d?5)) 0) (<= 1 uninterp?1)
                (<= p?4 uninterp?1) (<= B?8 uninterp?1) (<= uninterp?1 p?4)
                (= term_to_project_onto0 (+ |d'?3| (- d?5)))
                (= term_to_project_onto (+ |p'?2| (- p?4))))))
(check-sat)
